
;this file is automatically generated: Mon Oct 26 19:31:24 CST 2020

;declarations generated

(declare-fun oclExcludes ( Int Int) Bool)
(declare-fun class43_Class43IntAttr1 ( Int) Int)
(declare-fun Cardinality ( Int) Int)
(declare-fun obj_edc785b8_4330_4f5a_a095_808421df0ec7 ( Int) Int)
(declare-fun oclSelect ( Int Bool) Int)
(declare-fun Enum0 ( Int) Int)
(declare-fun Enum1 ( Int) Int)
(declare-fun Enum2 ( Int) Int)
(declare-fun container_ ( Int) Int)
(declare-fun oclIncludes ( Int Int) Bool)
(declare-fun type_bb5c9ef1_e5d8_4b03_9802_810238dddbde_Class43 ( Int) Bool)
(declare-fun ObjAt ( Int Int) Int)

;formula(s) generated
(assert (! (forall ((v Int)) (=> ( type_bb5c9ef1_e5d8_4b03_9802_810238dddbde_Class43 v )  (< ( class43_Class43IntAttr1 ( obj_edc785b8_4330_4f5a_a095_808421df0ec7 v )  )  7))):named l0))
(assert (exists ((o Int)) ( type_bb5c9ef1_e5d8_4b03_9802_810238dddbde_Class43 ( obj_edc785b8_4330_4f5a_a095_808421df0ec7 o )  ) ))

 ;end of formula 